50
120
100
99
99
97
97
96
96
96
93
93
91
84
83
81
79
78
77
74
71
67
66
63
62
61
61
61
59
59
59
58
57
56
54
54
53
53
51
50
49
48
45
45
45
40
40
39
39
34
32
30
